NAME: rue_20_7
TYPE: TSP
DIMENSION: 20
EDGE_WEIGHT_TYPE: EUC_2D
NODE_COORD_SECTION
1 31 26
2 5 28
3 11 3
4 39 7
5 31 14
6 24 24
7 12 29
8 5 7
9 13 21
10 15 22
11 31 6
12 14 15
13 25 17
14 15 1
15 14 27
16 2 26
17 16 7
18 37 35
19 38 38
20 40 21

